NAME : portcgen-25-17
COMMENT : portcgen N=25, seed=17
TYPE : TSP
DIMENSION : 25
EDGE_WEIGHT_TYPE : EUC_2D
NODE_COORD_SECTION
1 432145 -214889
2 -119945 -116409
3 337499 207527
4 240558 -90261
5 291207 160118
6 -62976 426252
7 453593 187929
8 -258805 365638
9 142354 180389
10 887 -247269
11 -139906 190955
12 235697 232351
13 -107910 85966
14 -59269 -207089
15 -306559 -264558
16 77932 -345020
17 -1951 85558
18 -328669 -72591
19 -149814 9681
20 -452717 113767
21 324941 221615
22 -403614 -44387
23 -112956 -66469
24 437470 97993
25 -397469 -115081
